p cnf 351 934
c
c CNF representation of circuit s420 with a subset ofoutputs randomly xor-ed
c Generated by mMsim
c Total gates: 252 Total inputs 34
c
c
p cnf 351 934
c
c Declaration of independent support
c
c ind 1 2 3 4 5 0
c ind 6 7 8 9 10 0
c ind 11 12 13 14 15 0
c ind 16 17 18 19 20 0
c ind 21 22 23 24 25 0
c ind 26 27 28 29 30 0
c ind 31 32 33 34 0
c
c Gate #35: not (NOT_1): out = 35, in = 20 
35 20 0
-35 -20 0
c Gate #36: not (NOT_3): out = 36, in = 21 
36 21 0
-36 -21 0
c Gate #37: not (NOT_4): out = 37, in = 22 
37 22 0
-37 -22 0
c Gate #38: not (NOT_5): out = 38, in = 1 
38 1 0
-38 -1 0
c Gate #39: not (NOT_6): out = 39, in = 1 
39 1 0
-39 -1 0
c Gate #40: not (NOT_7): out = 40, in = 19 
40 19 0
-40 -19 0
c Gate #41: not (NOT_8): out = 41, in = 20 
41 20 0
-41 -20 0
c Gate #42: not (NOT_11): out = 42, in = 24 
42 24 0
-42 -24 0
c Gate #43: not (NOT_13): out = 43, in = 25 
43 25 0
-43 -25 0
c Gate #44: not (NOT_14): out = 44, in = 26 
44 26 0
-44 -26 0
c Gate #45: not (NOT_17): out = 45, in = 23 
45 23 0
-45 -23 0
c Gate #46: not (NOT_18): out = 46, in = 24 
46 24 0
-46 -24 0
c Gate #47: not (NOT_21): out = 47, in = 28 
47 28 0
-47 -28 0
c Gate #48: not (NOT_23): out = 48, in = 29 
48 29 0
-48 -29 0
c Gate #49: not (NOT_24): out = 49, in = 30 
49 30 0
-49 -30 0
c Gate #50: not (NOT_27): out = 50, in = 27 
50 27 0
-50 -27 0
c Gate #51: not (NOT_28): out = 51, in = 28 
51 28 0
-51 -28 0
c Gate #52: not (NOT_31): out = 52, in = 33 
52 33 0
-52 -33 0
c Gate #53: not (NOT_32): out = 53, in = 34 
53 34 0
-53 -34 0
c Gate #54: not (NOT_34): out = 54, in = 32 
54 32 0
-54 -32 0
c Gate #55: not (NOT_35): out = 55, in = 33 
55 33 0
-55 -33 0
c Gate #56: not (NOT_38): out = 56, in = 1 
56 1 0
-56 -1 0
c Gate #57: not (NOT_39): out = 57, in = 22 
57 22 0
-57 -22 0
c Gate #58: not (NOT_40): out = 58, in = 21 
58 21 0
-58 -21 0
c Gate #59: not (NOT_41): out = 59, in = 20 
59 20 0
-59 -20 0
c Gate #60: not (NOT_42): out = 60, in = 19 
60 19 0
-60 -19 0
c Gate #61: not (NOT_44): out = 61, in = 1 
61 1 0
-61 -1 0
c Gate #62: not (NOT_45): out = 62, in = 26 
62 26 0
-62 -26 0
c Gate #63: not (NOT_46): out = 63, in = 25 
63 25 0
-63 -25 0
c Gate #64: not (NOT_47): out = 64, in = 24 
64 24 0
-64 -24 0
c Gate #65: not (NOT_48): out = 65, in = 23 
65 23 0
-65 -23 0
c Gate #66: not (NOT_50): out = 66, in = 1 
66 1 0
-66 -1 0
c Gate #67: not (NOT_51): out = 67, in = 30 
67 30 0
-67 -30 0
c Gate #68: not (NOT_52): out = 68, in = 29 
68 29 0
-68 -29 0
c Gate #69: not (NOT_53): out = 69, in = 28 
69 28 0
-69 -28 0
c Gate #70: not (NOT_54): out = 70, in = 27 
70 27 0
-70 -27 0
c Gate #71: not (NOT_56): out = 71, in = 1 
71 1 0
-71 -1 0
c Gate #72: not (NOT_57): out = 72, in = 34 
72 34 0
-72 -34 0
c Gate #73: not (NOT_58): out = 73, in = 33 
73 33 0
-73 -33 0
c Gate #74: not (NOT_59): out = 74, in = 32 
74 32 0
-74 -32 0
c Gate #75: not (NOT_60): out = 75, in = 31 
75 31 0
-75 -31 0
c Gate #76: not (NOT_64): out = 76, in = 16 
76 16 0
-76 -16 0
c Gate #77: not (NOT_65): out = 77, in = 15 
77 15 0
-77 -15 0
c Gate #78: not (NOT_68): out = 78, in = 12 
78 12 0
-78 -12 0
c Gate #79: not (NOT_69): out = 79, in = 11 
79 11 0
-79 -11 0
c Gate #80: not (NOT_72): out = 80, in = 8 
80 8 0
-80 -8 0
c Gate #81: not (NOT_73): out = 81, in = 7 
81 7 0
-81 -7 0
c Gate #82: not (NOT_76): out = 82, in = 4 
82 4 0
-82 -4 0
c Gate #83: not (NOT_77): out = 83, in = 3 
83 3 0
-83 -3 0
c Gate #84: and (AND2_4): out = 84, in = 38 22 
-84 38 0
-84 22 0
84 -38 -22 0
c Gate #85: and (AND2_5): out = 85, in = 37 1 
-85 37 0
-85 1 0
85 -37 -1 0
c Gate #86: and (AND2_41): out = 86, in = 18 1 
-86 18 0
-86 1 0
86 -18 -1 0
c Gate #87: or (OR2_1): out = 87, in = 85 84 
87 -85 0
87 -84 0
-87 85 84 0
c Gate #88: nand (NAND2_2): out = 88, in = 21 22 
88 21 0
88 22 0
-88 -21 -22 0
c Gate #89: nand (NAND2_3): out = 89, in = 1 22 
89 1 0
89 22 0
-89 -1 -22 0
c Gate #90: nand (NAND2_6): out = 90, in = 25 26 
90 25 0
90 26 0
-90 -25 -26 0
c Gate #91: nand (NAND2_10): out = 91, in = 29 30 
91 29 0
91 30 0
-91 -29 -30 0
c Gate #92: nand (NAND2_18): out = 92, in = 1 57 
92 1 0
92 57 0
-92 -1 -57 0
c Gate #93: nand (NAND2_20): out = 93, in = 1 62 
93 1 0
93 62 0
-93 -1 -62 0
c Gate #94: nand (NAND2_22): out = 94, in = 1 67 
94 1 0
94 67 0
-94 -1 -67 0
c Gate #95: nand (NAND2_24): out = 95, in = 1 72 
95 1 0
95 72 0
-95 -1 -72 0
c Gate #96: nor (NOR3_0): out = 96, in = 41 40 88 
254 -41 0
254 -40 0
-254 41 40 0
253 -254 0
253 -88 0
-253 254 88 0
96 253 0
-96 -253 0
c Gate #97: nor (NOR2_1): out = 97, in = 39 88 
-97 -39 0
-97 -88 0
97 39 88 0
c Gate #98: nor (NOR3_1): out = 98, in = 46 45 90 
256 -46 0
256 -45 0
-256 46 45 0
255 -256 0
255 -90 0
-255 256 90 0
98 255 0
-98 -255 0
c Gate #99: nor (NOR3_2): out = 99, in = 51 50 91 
258 -51 0
258 -50 0
-258 51 50 0
257 -258 0
257 -91 0
-257 258 91 0
99 257 0
-99 -257 0
c Gate #100: nor (NOR2_8): out = 100, in = 57 56 
-100 -57 0
-100 -56 0
100 57 56 0
c Gate #101: nor (NOR2_9): out = 101, in = 92 58 
-101 -92 0
-101 -58 0
101 92 58 0
c Gate #102: nor (NOR4_0): out = 102, in = 22 20 21 19 
260 -22 0
260 -20 0
-260 22 20 0
261 -260 0
261 -21 0
-261 260 21 0
259 -261 0
259 -19 0
-259 261 19 0
102 259 0
-102 -259 0
c Gate #103: nor (NOR2_11): out = 103, in = 62 61 
-103 -62 0
-103 -61 0
103 62 61 0
c Gate #104: nor (NOR2_12): out = 104, in = 93 63 
-104 -93 0
-104 -63 0
104 93 63 0
c Gate #105: nor (NOR4_1): out = 105, in = 26 24 25 23 
263 -26 0
263 -24 0
-263 26 24 0
264 -263 0
264 -25 0
-264 263 25 0
262 -264 0
262 -23 0
-262 264 23 0
105 262 0
-105 -262 0
c Gate #106: nor (NOR2_14): out = 106, in = 67 66 
-106 -67 0
-106 -66 0
106 67 66 0
c Gate #107: nor (NOR2_15): out = 107, in = 94 68 
-107 -94 0
-107 -68 0
107 94 68 0
c Gate #108: nor (NOR4_2): out = 108, in = 30 28 29 27 
266 -30 0
266 -28 0
-266 30 28 0
267 -266 0
267 -29 0
-267 266 29 0
265 -267 0
265 -27 0
-265 267 27 0
108 265 0
-108 -265 0
c Gate #109: nor (NOR2_17): out = 109, in = 72 71 
-109 -72 0
-109 -71 0
109 72 71 0
c Gate #110: nor (NOR2_18): out = 110, in = 95 73 
-110 -95 0
-110 -73 0
110 95 73 0
c Gate #111: and (AND2_0): out = 111, in = 35 97 
-111 35 0
-111 97 0
111 -35 -97 0
c Gate #112: and (AND2_2): out = 112, in = 36 89 
-112 36 0
-112 89 0
112 -36 -89 0
c Gate #113: not (NOT_49): out = 113, in = 93 
113 93 0
-113 -93 0
c Gate #114: and (AND2_23): out = 114, in = 1 96 
-114 1 0
-114 96 0
114 -1 -96 0
c Gate #115: and (AND2_24): out = 115, in = 114 98 
-115 114 0
-115 98 0
115 -114 -98 0
c Gate #116: and (AND2_25): out = 116, in = 115 99 
-116 115 0
-116 99 0
116 -115 -99 0
c Gate #117: and (AND2_26): out = 117, in = 105 102 
-117 105 0
-117 102 0
117 -105 -102 0
c Gate #118: and (AND2_27): out = 118, in = 108 117 
-118 108 0
-118 117 0
118 -108 -117 0
c Gate #119: and (AND2_28): out = 119, in = 103 102 
-119 103 0
-119 102 0
119 -103 -102 0
c Gate #120: and (AND2_29): out = 120, in = 104 102 
-120 104 0
-120 102 0
120 -104 -102 0
c Gate #121: and (AND2_32): out = 121, in = 106 117 
-121 106 0
-121 117 0
121 -106 -117 0
c Gate #122: and (AND2_33): out = 122, in = 107 117 
-122 107 0
-122 117 0
122 -107 -117 0
c Gate #123: and (AND2_36): out = 123, in = 109 118 
-123 109 0
-123 118 0
123 -109 -118 0
c Gate #124: and (AND2_37): out = 124, in = 110 118 
-124 110 0
-124 118 0
124 -110 -118 0
c Gate #125: and (AND2_40): out = 125, in = 17 100 
-125 17 0
-125 100 0
125 -17 -100 0
c Gate #126: not (NOT_0): out = 126, in = 97 
126 97 0
-126 -97 0
c Gate #127: and (AND2_42): out = 127, in = 13 119 
-127 13 0
-127 119 0
127 -13 -119 0
c Gate #128: and (AND2_44): out = 128, in = 9 121 
-128 9 0
-128 121 0
128 -9 -121 0
c Gate #129: and (AND2_46): out = 129, in = 5 123 
-129 5 0
-129 123 0
129 -5 -123 0
c Gate #130: not (NOT_33): out = 130, in = 116 
130 116 0
-130 -116 0
c Gate #131: or (OR3_1): out = 131, in = 39 41 88 
268 -39 0
268 -41 0
-268 39 41 0
131 -268 0
131 -88 0
-131 268 88 0
c Gate #132: nand (NAND2_1): out = 132, in = 19 131 
132 19 0
132 131 0
-132 -19 -131 0
c Gate #133: not (NOT_55): out = 133, in = 94 
133 94 0
-133 -94 0
c Gate #134: nand (NAND2_7): out = 134, in = 114 26 
134 114 0
134 26 0
-134 -114 -26 0
c Gate #135: nand (NAND2_11): out = 135, in = 115 30 
135 115 0
135 30 0
-135 -115 -30 0
c Gate #136: nand (NAND2_15): out = 136, in = 116 34 
136 116 0
136 34 0
-136 -116 -34 0
c Gate #137: not (NOT_37): out = 137, in = 136 
137 136 0
-137 -136 0
c Gate #138: nand (NAND2_19): out = 138, in = 63 113 
138 63 0
138 113 0
-138 -63 -113 0
c Gate #139: not (NOT_12): out = 139, in = 134 
139 134 0
-139 -134 0
c Gate #140: nand (NAND2_21): out = 140, in = 68 133 
140 68 0
140 133 0
-140 -68 -133 0
c Gate #141: not (NOT_22): out = 141, in = 135 
141 135 0
-141 -135 0
c Gate #142: not (NOT_2): out = 142, in = 89 
142 89 0
-142 -89 0
c Gate #143: not (NOT_61): out = 143, in = 95 
143 95 0
-143 -95 0
c Gate #144: not (NOT_62): out = 144, in = 101 
144 101 0
-144 -101 0
c Gate #145: not (NOT_9): out = 145, in = 97 
145 97 0
-145 -97 0
c Gate #146: not (NOT_25): out = 146, in = 115 
146 115 0
-146 -115 0
c Gate #147: not (NOT_66): out = 147, in = 120 
147 120 0
-147 -120 0
c Gate #148: not (NOT_43): out = 148, in = 92 
148 92 0
-148 -92 0
c Gate #149: not (NOT_26): out = 149, in = 115 
149 115 0
-149 -115 0
c Gate #150: nor (NOR2_13): out = 150, in = 138 64 
-150 -138 0
-150 -64 0
150 138 64 0
c Gate #151: nor (NOR3_4): out = 151, in = 65 138 24 
270 -65 0
270 -138 0
-270 65 138 0
269 -270 0
269 -24 0
-269 270 24 0
151 269 0
-151 -269 0
c Gate #152: not (NOT_70): out = 152, in = 122 
152 122 0
-152 -122 0
c Gate #153: not (NOT_15): out = 153, in = 114 
153 114 0
-153 -114 0
c Gate #154: nor (NOR2_16): out = 154, in = 140 69 
-154 -140 0
-154 -69 0
154 140 69 0
c Gate #155: nor (NOR3_5): out = 155, in = 70 140 28 
272 -70 0
272 -140 0
-272 70 140 0
271 -272 0
271 -28 0
-271 272 28 0
155 271 0
-155 -271 0
c Gate #156: not (NOT_16): out = 156, in = 114 
156 114 0
-156 -114 0
c Gate #157: not (NOT_74): out = 157, in = 124 
157 124 0
-157 -124 0
c Gate #158: nor (NOR2_20): out = 158, in = 86 125 
-158 -86 0
-158 -125 0
158 86 125 0
c Gate #159: and (AND2_16): out = 159, in = 146 30 
-159 146 0
-159 30 0
159 -146 -30 0
c Gate #160: or (OR3_0): out = 160, in = 41 19 145 
273 -41 0
273 -19 0
-273 41 19 0
160 -273 0
160 -145 0
-160 273 145 0
c Gate #161: and (AND2_17): out = 161, in = 49 115 
-161 49 0
-161 115 0
161 -49 -115 0
c Gate #162: and (AND2_18): out = 162, in = 52 136 
-162 52 0
-162 136 0
162 -52 -136 0
c Gate #163: or (OR3_3): out = 163, in = 156 46 90 
274 -156 0
274 -46 0
-274 156 46 0
163 -274 0
163 -90 0
-163 274 90 0
c Gate #164: or (OR2_5): out = 164, in = 161 159 
164 -161 0
164 -159 0
-164 161 159 0
c Gate #165: or (OR3_5): out = 165, in = 149 51 91 
275 -149 0
275 -51 0
-275 149 51 0
165 -275 0
165 -91 0
-165 275 91 0
c Gate #166: or (OR3_7): out = 166, in = 54 55 136 
276 -54 0
276 -55 0
-276 54 55 0
166 -276 0
166 -136 0
-166 276 136 0
c Gate #167: or (OR2_9): out = 167, in = 76 144 
167 -76 0
167 -144 0
-167 76 144 0
c Gate #168: or (OR2_11): out = 168, in = 78 147 
168 -78 0
168 -147 0
-168 78 147 0
c Gate #169: or (OR2_13): out = 169, in = 80 152 
169 -80 0
169 -152 0
-169 80 152 0
c Gate #170: or (OR2_15): out = 170, in = 82 157 
170 -82 0
170 -157 0
-170 82 157 0
c Gate #171: nand (NAND2_0): out = 171, in = 132 160 
171 132 0
171 160 0
-171 -132 -160 0
c Gate #172: nand (NAND2_5): out = 172, in = 23 163 
172 23 0
172 163 0
-172 -23 -163 0
c Gate #173: and (AND2_20): out = 173, in = 130 34 
-173 130 0
-173 34 0
173 -130 -34 0
c Gate #174: and (AND2_21): out = 174, in = 53 116 
-174 53 0
-174 116 0
174 -53 -116 0
c Gate #175: nand (NAND2_9): out = 175, in = 27 165 
175 27 0
175 165 0
-175 -27 -165 0
c Gate #176: and (AND2_22): out = 176, in = 33 137 
-176 33 0
-176 137 0
176 -33 -137 0
c Gate #177: nand (NAND2_14): out = 177, in = 31 166 
177 31 0
177 166 0
-177 -31 -166 0
c Gate #178: and (AND2_1): out = 178, in = 126 20 
-178 126 0
-178 20 0
178 -126 -20 0
c Gate #179: nand (NAND2_16): out = 179, in = 33 137 
179 33 0
179 137 0
-179 -33 -137 0
c Gate #180: nand (NAND2_17): out = 180, in = 58 148 
180 58 0
180 148 0
-180 -58 -148 0
c Gate #181: not (NOT_30): out = 181, in = 136 
181 136 0
-181 -136 0
c Gate #182: and (AND2_3): out = 182, in = 142 21 
-182 142 0
-182 21 0
182 -142 -21 0
c Gate #183: nand (NAND2_23): out = 183, in = 73 143 
183 73 0
183 143 0
-183 -73 -143 0
c Gate #184: nor (NOR2_0): out = 184, in = 182 112 
-184 -182 0
-184 -112 0
184 182 112 0
c Gate #185: and (AND2_30): out = 185, in = 150 102 
-185 150 0
-185 102 0
185 -150 -102 0
c Gate #186: and (AND2_31): out = 186, in = 151 102 
-186 151 0
-186 102 0
186 -151 -102 0
c Gate #187: nor (NOR2_3): out = 187, in = 156 90 
-187 -156 0
-187 -90 0
187 156 90 0
c Gate #188: and (AND2_8): out = 188, in = 43 134 
-188 43 0
-188 134 0
188 -43 -134 0
c Gate #189: nor (NOR2_5): out = 189, in = 149 91 
-189 -149 0
-189 -91 0
189 149 91 0
c Gate #190: nor (NOR2_7): out = 190, in = 176 54 
-190 -176 0
-190 -54 0
190 176 54 0
c Gate #191: and (AND2_9): out = 191, in = 139 25 
-191 139 0
-191 25 0
191 -139 -25 0
c Gate #192: and (AND2_34): out = 192, in = 154 117 
-192 154 0
-192 117 0
192 -154 -117 0
c Gate #193: nor (NOR2_10): out = 193, in = 180 59 
-193 -180 0
-193 -59 0
193 180 59 0
c Gate #194: nor (NOR3_3): out = 194, in = 60 180 20 
278 -60 0
278 -180 0
-278 60 180 0
277 -278 0
277 -20 0
-277 278 20 0
194 277 0
-194 -277 0
c Gate #195: not (NOT_67): out = 195, in = 185 
195 185 0
-195 -185 0
c Gate #196: and (AND2_35): out = 196, in = 155 117 
-196 155 0
-196 117 0
196 -155 -117 0
c Gate #197: and (AND2_10): out = 197, in = 153 26 
-197 153 0
-197 26 0
197 -153 -26 0
c Gate #198: and (AND2_11): out = 198, in = 44 114 
-198 44 0
-198 114 0
198 -44 -114 0
c Gate #199: not (NOT_71): out = 199, in = 192 
199 192 0
-199 -192 0
c Gate #200: and (AND2_12): out = 200, in = 47 189 
-200 47 0
-200 189 0
200 -47 -189 0
c Gate #201: and (AND2_14): out = 201, in = 48 135 
-201 48 0
-201 135 0
201 -48 -135 0
c Gate #202: and (AND2_43): out = 202, in = 14 194 
-202 14 0
-202 194 0
202 -14 -194 0
c Gate #203: and (AND2_15): out = 203, in = 141 29 
-203 141 0
-203 29 0
203 -141 -29 0
c Gate #204: nor (NOR2_19): out = 204, in = 183 74 
-204 -183 0
-204 -74 0
204 183 74 0
c Gate #205: nor (NOR3_6): out = 205, in = 75 183 32 
280 -75 0
280 -183 0
-280 75 183 0
279 -280 0
279 -32 0
-279 280 32 0
205 279 0
-205 -279 0
c Gate #206: and (AND2_45): out = 206, in = 10 186 
-206 10 0
-206 186 0
206 -10 -186 0
c Gate #207: nor (NOR2_21): out = 207, in = 202 127 
-207 -202 0
-207 -127 0
207 202 127 0
c Gate #208: nor (NOR2_22): out = 208, in = 206 128 
-208 -206 0
-208 -128 0
208 206 128 0
c Gate #209: or (OR2_12): out = 209, in = 81 199 
209 -81 0
209 -199 0
-209 81 199 0
c Gate #210: not (NOT_29): out = 210, in = 189 
210 189 0
-210 -189 0
c Gate #211: not (NOT_10): out = 211, in = 187 
211 187 0
-211 -187 0
c Gate #212: and (AND2_6): out = 212, in = 42 187 
-212 42 0
-212 187 0
212 -42 -187 0
c Gate #213: or (OR2_0): out = 213, in = 178 111 
213 -178 0
213 -111 0
-213 178 111 0
c Gate #214: and (AND2_7): out = 214, in = 211 24 
-214 211 0
-214 24 0
214 -211 -24 0
c Gate #215: nand (NAND3_2): out = 215, in = 208 169 209 
-282 208 0
-282 169 0
282 -208 -169 0
-281 282 0
-281 209 0
281 -282 -209 0
215 281 0
-215 -281 0
c Gate #216: or (OR3_4): out = 216, in = 51 27 210 
283 -51 0
283 -27 0
-283 51 27 0
216 -283 0
216 -210 0
-216 283 210 0
c Gate #217: nor (NOR2_2): out = 217, in = 191 188 
-217 -191 0
-217 -188 0
217 191 188 0
c Gate #218: not (NOT_63): out = 218, in = 193 
218 193 0
-218 -193 0
c Gate #219: nor (NOR2_4): out = 219, in = 203 201 
-219 -203 0
-219 -201 0
219 203 201 0
c Gate #220: and (AND2_19): out = 220, in = 181 33 
-220 181 0
-220 33 0
220 -181 -33 0
c Gate #221: not (NOT_19): out = 221, in = 187 
221 187 0
-221 -187 0
c Gate #222: not (NOT_20): out = 222, in = 189 
222 189 0
-222 -189 0
c Gate #223: and (AND2_47): out = 223, in = 6 196 
-223 6 0
-223 196 0
223 -6 -196 0
c Gate #224: or (OR3_6): out = 224, in = 54 31 179 
284 -54 0
284 -31 0
-284 54 31 0
224 -284 0
224 -179 0
-224 284 179 0
c Gate #225: nand (NAND2_8): out = 225, in = 175 216 
225 175 0
225 216 0
-225 -175 -216 0
c Gate #226: and (AND2_38): out = 226, in = 204 118 
-226 204 0
-226 118 0
226 -204 -118 0
c Gate #227: and (AND2_39): out = 227, in = 205 118 
-227 205 0
-227 118 0
227 -205 -118 0
c Gate #228: or (OR2_6): out = 228, in = 32 179 
228 -32 0
228 -179 0
-228 32 179 0
c Gate #229: not (NOT_36): out = 229, in = 190 
229 190 0
-229 -190 0
c Gate #230: and (AND2_13): out = 230, in = 222 28 
-230 222 0
-230 28 0
230 -222 -28 0
c Gate #231: or (OR2_7): out = 231, in = 174 173 
231 -174 0
231 -173 0
-231 174 173 0
c Gate #232: nand (NAND2_12): out = 232, in = 177 224 
232 177 0
232 224 0
-232 -177 -224 0
c Gate #233: nand (NAND2_13): out = 233, in = 229 228 
233 229 0
233 228 0
-233 -229 -228 0
c Gate #234: not (NOT_75): out = 234, in = 226 
234 226 0
-234 -226 0
c Gate #235: or (OR3_2): out = 235, in = 46 23 221 
285 -46 0
285 -23 0
-285 46 23 0
235 -285 0
235 -221 0
-235 285 221 0
c Gate #236: or (OR2_8): out = 236, in = 77 218 
236 -77 0
236 -218 0
-236 77 218 0
c Gate #237: or (OR2_2): out = 237, in = 214 212 
237 -214 0
237 -212 0
-237 214 212 0
c Gate #238: or (OR2_10): out = 238, in = 79 195 
238 -79 0
238 -195 0
-238 79 195 0
c Gate #239: or (OR2_3): out = 239, in = 198 197 
239 -198 0
239 -197 0
-239 198 197 0
c Gate #240: nor (NOR2_23): out = 240, in = 223 129 
-240 -223 0
-240 -129 0
240 223 129 0
c Gate #241: or (OR2_4): out = 241, in = 230 200 
241 -230 0
241 -200 0
-241 230 200 0
c Gate #242: nand (NAND3_1): out = 242, in = 207 168 238 
-287 207 0
-287 168 0
287 -207 -168 0
-286 287 0
-286 238 0
286 -287 -238 0
242 286 0
-242 -286 0
c Gate #243: nand (NAND3_0): out = 243, in = 158 167 236 
-289 158 0
-289 167 0
289 -158 -167 0
-288 289 0
-288 236 0
288 -289 -236 0
243 288 0
-243 -288 0
c Gate #244: nand (NAND2_4): out = 244, in = 172 235 
244 172 0
244 235 0
-244 -172 -235 0
c Gate #245: and (AND2_48): out = 245, in = 2 227 
-245 2 0
-245 227 0
245 -2 -227 0
c Gate #246: or (OR2_14): out = 246, in = 83 234 
246 -83 0
246 -234 0
-246 83 234 0
c Gate #247: nor (NOR2_6): out = 247, in = 220 162 
-247 -220 0
-247 -162 0
247 220 162 0
c Gate #248: or (OR2_16): out = 248, in = 242 243 
248 -242 0
248 -243 0
-248 242 243 0
c Gate #249: nand (NAND3_3): out = 249, in = 240 170 246 
-291 240 0
-291 170 0
291 -240 -170 0
-290 291 0
-290 246 0
290 -291 -246 0
249 290 0
-249 -290 0
c Gate #250: or (OR2_17): out = 250, in = 215 248 
250 -215 0
250 -248 0
-250 215 248 0
c Gate #251: or (OR2_18): out = 251, in = 249 250 
251 -249 0
251 -250 0
-251 249 250 0
c Gate #252: or (OR2_19): out = 252, in = 245 251 
252 -245 0
252 -251 0
-252 245 251 0
c
c Random XOR constraints start here
c
-292 247 232 0
-292 -247 -232 0
292 -247 232 0
292 247 -232 0
-293 292 231 0
-293 -292 -231 0
293 -292 231 0
293 292 -231 0
-294 293 241 0
-294 -293 -241 0
294 -293 241 0
294 293 -241 0
-295 294 237 0
-295 -294 -237 0
295 -294 237 0
295 294 -237 0
295 0
c Rand xor clause 1 with 5 lits
-296 247 232 0
-296 -247 -232 0
296 -247 232 0
296 247 -232 0
-297 296 231 0
-297 -296 -231 0
297 -296 231 0
297 296 -231 0
-298 297 241 0
-298 -297 -241 0
298 -297 241 0
298 297 -241 0
-299 298 237 0
-299 -298 -237 0
299 -298 237 0
299 298 -237 0
299 0
c Rand xor clause 2 with 5 lits
-300 247 232 0
-300 -247 -232 0
300 -247 232 0
300 247 -232 0
-301 300 231 0
-301 -300 -231 0
301 -300 231 0
301 300 -231 0
-302 301 241 0
-302 -301 -241 0
302 -301 241 0
302 301 -241 0
-303 302 237 0
-303 -302 -237 0
303 -302 237 0
303 302 -237 0
303 0
c Rand xor clause 3 with 5 lits
-304 247 232 0
-304 -247 -232 0
304 -247 232 0
304 247 -232 0
-305 304 231 0
-305 -304 -231 0
305 -304 231 0
305 304 -231 0
-306 305 241 0
-306 -305 -241 0
306 -305 241 0
306 305 -241 0
-307 306 237 0
-307 -306 -237 0
307 -306 237 0
307 306 -237 0
307 0
c Rand xor clause 4 with 5 lits
-308 247 232 0
-308 -247 -232 0
308 -247 232 0
308 247 -232 0
-309 308 231 0
-309 -308 -231 0
309 -308 231 0
309 308 -231 0
-310 309 241 0
-310 -309 -241 0
310 -309 241 0
310 309 -241 0
-311 310 237 0
-311 -310 -237 0
311 -310 237 0
311 310 -237 0
311 0
c Rand xor clause 5 with 5 lits
-312 247 232 0
-312 -247 -232 0
312 -247 232 0
312 247 -232 0
-313 312 231 0
-313 -312 -231 0
313 -312 231 0
313 312 -231 0
-314 313 241 0
-314 -313 -241 0
314 -313 241 0
314 313 -241 0
-315 314 237 0
-315 -314 -237 0
315 -314 237 0
315 314 -237 0
315 0
c Rand xor clause 6 with 5 lits
-316 247 232 0
-316 -247 -232 0
316 -247 232 0
316 247 -232 0
-317 316 231 0
-317 -316 -231 0
317 -316 231 0
317 316 -231 0
-318 317 241 0
-318 -317 -241 0
318 -317 241 0
318 317 -241 0
-319 318 237 0
-319 -318 -237 0
319 -318 237 0
319 318 -237 0
319 0
c Rand xor clause 7 with 5 lits
-320 247 232 0
-320 -247 -232 0
320 -247 232 0
320 247 -232 0
-321 320 231 0
-321 -320 -231 0
321 -320 231 0
321 320 -231 0
-322 321 241 0
-322 -321 -241 0
322 -321 241 0
322 321 -241 0
-323 322 237 0
-323 -322 -237 0
323 -322 237 0
323 322 -237 0
323 0
c Rand xor clause 8 with 5 lits
-324 247 232 0
-324 -247 -232 0
324 -247 232 0
324 247 -232 0
-325 324 231 0
-325 -324 -231 0
325 -324 231 0
325 324 -231 0
-326 325 241 0
-326 -325 -241 0
326 -325 241 0
326 325 -241 0
-327 326 237 0
-327 -326 -237 0
327 -326 237 0
327 326 -237 0
327 0
c Rand xor clause 9 with 5 lits
-328 247 232 0
-328 -247 -232 0
328 -247 232 0
328 247 -232 0
-329 328 231 0
-329 -328 -231 0
329 -328 231 0
329 328 -231 0
-330 329 241 0
-330 -329 -241 0
330 -329 241 0
330 329 -241 0
-331 330 237 0
-331 -330 -237 0
331 -330 237 0
331 330 -237 0
331 0
c Rand xor clause 10 with 5 lits
-332 247 232 0
-332 -247 -232 0
332 -247 232 0
332 247 -232 0
-333 332 231 0
-333 -332 -231 0
333 -332 231 0
333 332 -231 0
-334 333 241 0
-334 -333 -241 0
334 -333 241 0
334 333 -241 0
-335 334 237 0
-335 -334 -237 0
335 -334 237 0
335 334 -237 0
335 0
c Rand xor clause 11 with 5 lits
-336 247 232 0
-336 -247 -232 0
336 -247 232 0
336 247 -232 0
-337 336 231 0
-337 -336 -231 0
337 -336 231 0
337 336 -231 0
-338 337 241 0
-338 -337 -241 0
338 -337 241 0
338 337 -241 0
-339 338 237 0
-339 -338 -237 0
339 -338 237 0
339 338 -237 0
339 0
c Rand xor clause 12 with 5 lits
-340 247 232 0
-340 -247 -232 0
340 -247 232 0
340 247 -232 0
-341 340 231 0
-341 -340 -231 0
341 -340 231 0
341 340 -231 0
-342 341 241 0
-342 -341 -241 0
342 -341 241 0
342 341 -241 0
-343 342 237 0
-343 -342 -237 0
343 -342 237 0
343 342 -237 0
343 0
c Rand xor clause 13 with 5 lits
-344 247 232 0
-344 -247 -232 0
344 -247 232 0
344 247 -232 0
-345 344 231 0
-345 -344 -231 0
345 -344 231 0
345 344 -231 0
-346 345 241 0
-346 -345 -241 0
346 -345 241 0
346 345 -241 0
-347 346 237 0
-347 -346 -237 0
347 -346 237 0
347 346 -237 0
347 0
c Rand xor clause 14 with 5 lits
-348 247 232 0
-348 -247 -232 0
348 -247 232 0
348 247 -232 0
-349 348 231 0
-349 -348 -231 0
349 -348 231 0
349 348 -231 0
-350 349 241 0
-350 -349 -241 0
350 -349 241 0
350 349 -241 0
-351 350 237 0
-351 -350 -237 0
351 -350 237 0
351 350 -237 0
351 0
c Rand xor clause 15 with 5 lits
